webassembly/ejemplos_dzn/folder9_json_25.dzn
TERM = { '.', 'in_1', 'local_0', 'local_1', 'in_2', 'in_4', 'in_3', 'in_5', 'in_0'};
null = '.';
s = 9;
n = 13;
ndeps = 2;
max_registers_sz = 5;
NR = 2;
registers = [|'local_0', 'in_1', |'local_1', 'in_0'|];
dependencies = [|'i32.store16_4', 'i32.store16_7', |'i32.store16_7', 'call[function_index(0)]_8'|];
GET_ENUM = { GET1, GET2, GET3, GET4, GET5, GET6, GET7};
SET_ENUM = { SET1, SET2, SET3, SET4, SET5, SET6, SET7};
TEE_ENUM = { TEE1, TEE2, TEE3, TEE4, TEE5, TEE6, TEE7};
N = 3;
OP = { 'call[function_index(0)]_8', 'i32.store16_4', 'i32.store16_7' };
in_ops = [3, 2, 2 ];
out_ops = [0, 0, 0 ];
in1 = ['in_3', 'local_0', 'in_1' ];
in2 = ['in_4', 'local_1', 'in_2' ];
in3 = ['in_5', '.', '.' ];
out1 = ['.', '.', '.' ];
out2 = ['.', '.', '.' ];
out3 = ['.', '.', '.' ];
comm = [false, false, false ];
gas = [1, 1, 1 ];
sz = [1, 1, 1 ];
stor = [true, true, true ];
lb = [ 1, 1, 1 ];
ub = [ 9, 9, 9 ];
startstack = [ 'in_0', 'in_1', 'in_2', 'in_3', 'in_4', 'in_5', null, null, null, null, null, null, null ];
endstack = [ null, null, null, null, null, null, null, null, null, null, null, null, null ];
