webassembly/ejemplos_results/9/folder9_json_25.txt
value = 9;
fgas = [1, 1, 1, 1, 1, 1, 1, 1, 1];
fsize = [1, 1, 1, 1, 1, 1, 1, 1, 1];
states = 
[|    in_0,    in_1, in_2,    in_3,    in_4,    in_5,     '.',  '.',  '.',     '.',  '.',     '.',     '.'
 |    in_0,    in_1, in_2,    in_3,    in_4,    in_5,     '.',  '.',  '.',    in_1, in_2,    in_0, local_1
 |    in_1,    in_2, in_3,    in_4,    in_5,     '.',     '.',  '.', in_1,    in_2, in_0, local_1,     '.'
 |    in_3,    in_4, in_5,     '.',     '.',     '.',    in_1, in_2, in_0, local_1,  '.',     '.',     '.'
 |    in_1,     '.',  '.',    in_1,    in_2,    in_0, local_1,  '.',  '.',     '.',  '.',     '.',     '.'
 |     '.',     '.', in_1,    in_2,    in_0, local_1,     '.',  '.',  '.',     '.',  '.',     '.',     '.'
 |     '.',    in_1, in_2,    in_0, local_1,     '.',     '.',  '.',  '.',     '.',  '.',     '.',     '.'
 |    in_1,    in_2, in_0, local_1,     '.',     '.',     '.',  '.',  '.',     '.',  '.',     '.',     '.'
 | local_0, local_1,  '.',     '.',     '.',     '.',     '.',  '.',  '.',     '.',  '.',     '.',     '.'
 |     '.',     '.',  '.',     '.',     '.',     '.',     '.',  '.',  '.',     '.',  '.',     '.',     '.'
 |];
register_states = 
[| local_0, local_1, '.', '.', '.', '.', '.'
 | local_0,    in_0, '.', '.', '.', '.', '.'
 |    in_0,    in_0, '.', '.', '.', '.', '.'
 |    in_0,    in_0, '.', '.', '.', '.', '.'
 |    in_0,    in_0, '.', '.', '.', '.', '.'
 |    in_1,    in_0, '.', '.', '.', '.', '.'
 |    in_1,    in_0, '.', '.', '.', '.', '.'
 |    in_1,    in_0, '.', '.', '.', '.', '.'
 |    in_1,    in_0, '.', '.', '.', '.', '.'
 |    in_1,    in_0, '.', '.', '.', '.', '.'
 |];
program = [TEE(TEE2), S(SET1), O('i32.store16_7'), O('call[function_index(0)]_8'), S(SET1), G(GET7), G(GET1), O('i32.store16_7'), O('i32.store16_4')];
% time elapsed: 0.09 s
----------
==========
% time elapsed: 0.10 s
% [value > 8]
